% File represents an instance of a Composite Structure problem to be solved by a CP framework
% Created on 2025-03-26 10:41:58.971
T = 50;
n = 36;
m = 60;
edges = [(1, 2),
(7, 8),
(13, 14),
(19, 20),
(26, 25),
(32, 31),
(3, 2),
(8, 9),
(14, 15),
(21, 20),
(27, 26),
(33, 32),
(3, 4),
(10, 9),
(16, 15),
(21, 22),
(27, 28),
(33, 34),
(5, 4),
(10, 11),
(16, 17),
(23, 22),
(29, 28),
(35, 34),
(5, 6),
(11, 12),
(17, 18),
(23, 24),
(29, 30),
(36, 35),
(7, 1),
(13, 7),
(13, 19),
(19, 25),
(25, 31),
(8, 2),
(14, 8),
(14, 20),
(26, 20),
(26, 32),
(3, 9),
(9, 15),
(21, 15),
(27, 21),
(27, 33),
(10, 4),
(16, 10),
(16, 22),
(28, 22),
(28, 34),
(5, 11),
(11, 17),
(23, 17),
(29, 23),
(29, 35),
(6, 12),
(12, 18),
(24, 18),
(30, 24),
(36, 30)];
counts = [|2, 18, 2, 20,
|2, 18, 2, 16,
|4, 18, 4, 18,
|2, 16, 2, 18,
|2, 18, 2, 20,
|2, 18, 2, 16,
|2, 18, 2, 22,
|2, 18, 2, 20,
|2, 18, 2, 18,
|2, 20, 2, 18,
|2, 18, 2, 18,
|2, 16, 2, 14,
|2, 22, 2, 24,
|2, 18, 2, 22,
|2, 16, 2, 18,
|2, 22, 2, 18,
|2, 18, 2, 16,
|2, 16, 2, 12,
|2, 18, 2, 22,
|2, 16, 2, 18,
|2, 20, 2, 18,
|2, 18, 2, 18,
|2, 20, 2, 18,
|2, 16, 2, 18,
|2, 18, 2, 20,
|2, 20, 2, 20,
|2, 20, 2, 22,
|2, 18, 2, 22,
|2, 22, 2, 22,
|2, 20, 2, 20,
|2, 16, 2, 18,
|2, 20, 2, 18,
|2, 20, 2, 20,
|2, 18, 2, 20,
|2, 22, 2, 20,
|2, 24, 2, 20|];
